n = 30
Q1 = [0 0 20 35 0 0 0 0 31 0 8 0 0 0 7 0 0 0 0 0 0 10 0 0 7 0 44 38 0 0; 0 0 0 0 0 7 0 0 0 0 0 18 0 0 11 20 0 0 0 0 31 0 17 44 0 0 48 0 0 39; 0 0 0 0 0 46 0 0 36 0 0 30 0 0 35 0 37 0 49 0 0 26 30 0 0 33 0 0 0 18; 0 0 0 0 42 17 0 0 0 0 0 0 0 0 0 17 20 37 0 0 0 0 0 0 0 11 37 14 0 0; 0 0 0 0 0 0 0 49 0 0 30 47 6 11 17 0 0 20 0 13 0 34 0 0 5 6 0 0 17 0; 0 0 0 0 0 0 0 0 0 0 0 0 0 38 39 0 0 14 0 0 0 9 22 0 0 0 0 0 0 0; 0 0 0 0 0 0 0 0 0 11 0 0 0 0 0 0 39 0 0 0 0 0 0 0 15 36 0 0 0 0; 0 0 0 0 0 0 0 0 0 0 0 31 0 0 47 0 14 36 0 36 0 6 0 25 0 24 46 30 41 31; 0 0 0 0 0 0 0 0 0 0 7 0 0 16 0 0 0 25 0 0 0 0 0 0 0 0 48 35 5 0; 0 0 0 0 0 0 0 0 0 0 0 0 0 0 0 0 0 0 0 0 0 0 39 11 0 0 0 0 7 16; 0 0 0 0 0 0 0 0 0 0 0 0 0 0 0 0 31 0 38 0 0 0 26 39 31 35 0 0 0 0; 0 0 0 0 0 0 0 0 0 0 0 0 0 30 0 0 40 0 46 8 0 0 0 0 21 0 0 0 0 0; 0 0 0 0 0 0 0 0 0 0 0 0 0 50 42 10 0 0 36 0 0 0 0 16 0 0 0 44 0 29; 0 0 0 0 0 0 0 0 0 0 0 0 0 0 0 11 30 0 0 0 0 0 0 36 46 0 0 35 0 0; 0 0 0 0 0 0 0 0 0 0 0 0 0 0 0 32 41 0 0 0 0 0 0 0 0 37 0 0 0 0; 0 0 0 0 0 0 0 0 0 0 0 0 0 0 0 0 12 0 0 0 0 0 23 34 36 0 0 0 0 40; 0 0 0 0 0 0 0 0 0 0 0 0 0 0 0 0 0 0 24 39 0 0 0 11 0 0 0 42 0 0; 0 0 0 0 0 0 0 0 0 0 0 0 0 0 0 0 0 0 49 24 0 0 16 31 20 0 0 0 0 0; 0 0 0 0 0 0 0 0 0 0 0 0 0 0 0 0 0 0 0 0 0 0 0 29 0 0 0 0 0 0; 0 0 0 0 0 0 0 0 0 0 0 0 0 0 0 0 0 0 0 0 0 0 36 0 41 0 0 0 35 0; 0 0 0 0 0 0 0 0 0 0 0 0 0 0 0 0 0 0 0 0 0 9 0 0 41 0 0 0 0 33; 0 0 0 0 0 0 0 0 0 0 0 0 0 0 0 0 0 0 0 0 0 0 0 0 0 0 0 0 0 0; 0 0 0 0 0 0 0 0 0 0 0 0 0 0 0 0 0 0 0 0 0 0 0 0 0 0 0 34 0 0; 0 0 0 0 0 0 0 0 0 0 0 0 0 0 0 0 0 0 0 0 0 0 0 0 34 0 0 0 5 0; 0 0 0 0 0 0 0 0 0 0 0 0 0 0 0 0 0 0 0 0 0 0 0 0 0 14 0 25 10 0; 0 0 0 0 0 0 0 0 0 0 0 0 0 0 0 0 0 0 0 0 0 0 0 0 0 0 0 0 0 0; 0 0 0 0 0 0 0 0 0 0 0 0 0 0 0 0 0 0 0 0 0 0 0 0 0 0 0 0 16 0; 0 0 0 0 0 0 0 0 0 0 0 0 0 0 0 0 0 0 0 0 0 0 0 0 0 0 0 0 0 0; 0 0 0 0 0 0 0 0 0 0 0 0 0 0 0 0 0 0 0 0 0 0 0 0 0 0 0 0 0 0; 0 0 0 0 0 0 0 0 0 0 0 0 0 0 0 0 0 0 0 0 0 0 0 0 0 0 0 0 0 0]
Q2 = [0.0 0.0 50.0 12.0 0.0 0.0 0.0 0.0 12.0 0.0 43.0 0.0 0.0 0.0 43.0 0.0 0.0 0.0 0.0 0.0 0.0 42.0 0.0 0.0 47.0 0.0 5.0 0.0 0.0 0.0; 0.0 0.0 0.0 0.0 0.0 48.0 0.0 0.0 0.0 0.0 0.0 44.0 0.0 0.0 39.0 50.0 0.0 0.0 0.0 0.0 12.0 0.0 33.0 1.0 0.0 0.0 0.0 0.0 0.0 7.0; 0.0 0.0 0.0 0.0 0.0 3.0 0.0 0.0 9.0 0.0 0.0 14.0 0.0 0.0 12.0 0.0 12.0 0.0 1.0 0.0 0.0 14.0 10.0 0.0 0.0 12.0 0.0 0.0 0.0 34.0; 0.0 0.0 0.0 0.0 3.0 44.0 0.0 0.0 0.0 0.0 0.0 0.0 0.0 0.0 0.0 41.0 42.0 4.0 0.0 0.0 0.0 0.0 0.0 0.0 0.0 41.0 4.0 48.0 0.0 0.0; 0.0 0.0 0.0 0.0 0.0 0.0 0.0 0.0 0.0 0.0 10.0 1.0 46.0 48.0 47.0 0.0 0.0 41.0 0.0 49.0 0.0 6.0 0.0 0.0 45.0 46.0 0.0 0.0 41.0 0.0; 0.0 0.0 0.0 0.0 0.0 0.0 0.0 0.0 0.0 0.0 0.0 0.0 0.0 0.0 6.0 0.0 0.0 49.0 0.0 0.0 0.0 47.0 50.0 0.0 0.0 0.0 0.0 0.0 0.0 0.0; 0.0 0.0 0.0 0.0 0.0 0.0 0.0 0.0 0.0 44.0 0.0 0.0 0.0 0.0 0.0 0.0 5.0 0.0 0.0 0.0 0.0 0.0 0.0 0.0 37.0 13.0 0.0 0.0 0.0 0.0; 0.0 0.0 0.0 0.0 0.0 0.0 0.0 0.0 0.0 0.0 0.0 16.0 0.0 0.0 0.0 0.0 41.0 6.0 0.0 8.0 0.0 45.0 0.0 11.0 0.0 50.0 2.0 6.0 2.0 5.0; 0.0 0.0 0.0 0.0 0.0 0.0 0.0 0.0 0.0 0.0 46.0 0.0 0.0 48.0 0.0 0.0 0.0 12.0 0.0 0.0 0.0 0.0 0.0 0.0 0.0 0.0 0.0 5.0 45.0 0.0; 0.0 0.0 0.0 0.0 0.0 0.0 0.0 0.0 0.0 0.0 0.0 0.0 0.0 0.0 0.0 0.0 0.0 0.0 0.0 0.0 0.0 0.0 1.0 43.0 0.0 0.0 0.0 0.0 46.0 41.0; 0.0 0.0 0.0 0.0 0.0 0.0 0.0 0.0 0.0 0.0 0.0 0.0 0.0 0.0 0.0 0.0 0.0 0.0 7.0 0.0 0.0 0.0 16.0 1.0 6.0 4.0 0.0 0.0 0.0 0.0; 0.0 0.0 0.0 0.0 0.0 0.0 0.0 0.0 0.0 0.0 0.0 0.0 0.0 20.0 0.0 0.0 10.0 0.0 3.0 47.0 0.0 0.0 0.0 0.0 29.0 0.0 0.0 0.0 0.0 0.0; 0.0 0.0 0.0 0.0 0.0 0.0 0.0 0.0 0.0 0.0 0.0 0.0 0.0 0.0 7.0 46.0 0.0 0.0 3.0 0.0 0.0 0.0 0.0 46.0 0.0 0.0 0.0 0.0 0.0 19.0; 0.0 0.0 0.0 0.0 0.0 0.0 0.0 0.0 0.0 0.0 0.0 0.0 0.0 0.0 0.0 43.0 17.0 0.0 0.0 0.0 0.0 0.0 0.0 6.0 3.0 0.0 0.0 0.0 0.0 0.0; 0.0 0.0 0.0 0.0 0.0 0.0 0.0 0.0 0.0 0.0 0.0 0.0 0.0 0.0 0.0 10.0 2.0 0.0 0.0 0.0 0.0 0.0 0.0 0.0 0.0 12.0 0.0 0.0 0.0 0.0; 0.0 0.0 0.0 0.0 0.0 0.0 0.0 0.0 0.0 0.0 0.0 0.0 0.0 0.0 0.0 0.0 43.0 0.0 0.0 0.0 0.0 0.0 40.0 15.0 6.0 0.0 0.0 0.0 0.0 8.0; 0.0 0.0 0.0 0.0 0.0 0.0 0.0 0.0 0.0 0.0 0.0 0.0 0.0 0.0 0.0 0.0 0.0 0.0 30.0 5.0 0.0 0.0 0.0 43.0 0.0 0.0 0.0 8.0 0.0 0.0; 0.0 0.0 0.0 0.0 0.0 0.0 0.0 0.0 0.0 0.0 0.0 0.0 0.0 0.0 0.0 0.0 0.0 0.0 1.0 38.0 0.0 0.0 41.0 12.0 40.0 0.0 0.0 0.0 0.0 0.0; 0.0 0.0 0.0 0.0 0.0 0.0 0.0 0.0 0.0 0.0 0.0 0.0 0.0 0.0 0.0 0.0 0.0 0.0 0.0 0.0 0.0 0.0 0.0 7.0 0.0 0.0 0.0 0.0 0.0 0.0; 0.0 0.0 0.0 0.0 0.0 0.0 0.0 0.0 0.0 0.0 0.0 0.0 0.0 0.0 0.0 0.0 0.0 0.0 0.0 0.0 0.0 0.0 3.0 0.0 0.0 0.0 0.0 0.0 0.0 0.0; 0.0 0.0 0.0 0.0 0.0 0.0 0.0 0.0 0.0 0.0 0.0 0.0 0.0 0.0 0.0 0.0 0.0 0.0 0.0 0.0 0.0 45.0 0.0 0.0 1.0 0.0 0.0 0.0 0.0 2.0; 0.0 0.0 0.0 0.0 0.0 0.0 0.0 0.0 0.0 0.0 0.0 0.0 0.0 0.0 0.0 0.0 0.0 0.0 0.0 0.0 0.0 0.0 0.0 0.0 0.0 0.0 0.0 0.0 0.0 0.0; 0.0 0.0 0.0 0.0 0.0 0.0 0.0 0.0 0.0 0.0 0.0 0.0 0.0 0.0 0.0 0.0 0.0 0.0 0.0 0.0 0.0 0.0 0.0 0.0 0.0 0.0 0.0 14.0 0.0 0.0; 0.0 0.0 0.0 0.0 0.0 0.0 0.0 0.0 0.0 0.0 0.0 0.0 0.0 0.0 0.0 0.0 0.0 0.0 0.0 0.0 0.0 0.0 0.0 0.0 16.0 0.0 0.0 0.0 47.0 0.0; 0.0 0.0 0.0 0.0 0.0 0.0 0.0 0.0 0.0 0.0 0.0 0.0 0.0 0.0 0.0 0.0 0.0 0.0 0.0 0.0 0.0 0.0 0.0 0.0 0.0 37.0 0.0 19.0 50.0 0.0; 0.0 0.0 0.0 0.0 0.0 0.0 0.0 0.0 0.0 0.0 0.0 0.0 0.0 0.0 0.0 0.0 0.0 0.0 0.0 0.0 0.0 0.0 0.0 0.0 0.0 0.0 0.0 0.0 0.0 0.0; 0.0 0.0 0.0 0.0 0.0 0.0 0.0 0.0 0.0 0.0 0.0 0.0 0.0 0.0 0.0 0.0 0.0 0.0 0.0 0.0 0.0 0.0 0.0 0.0 0.0 0.0 0.0 0.0 47.0 0.0; 0.0 0.0 0.0 0.0 0.0 0.0 0.0 0.0 0.0 0.0 0.0 0.0 0.0 0.0 0.0 0.0 0.0 0.0 0.0 0.0 0.0 0.0 0.0 0.0 0.0 0.0 0.0 0.0 0.0 0.0; 0.0 0.0 0.0 0.0 0.0 0.0 0.0 0.0 0.0 0.0 0.0 0.0 0.0 0.0 0.0 0.0 0.0 0.0 0.0 0.0 0.0 0.0 0.0 0.0 0.0 0.0 0.0 0.0 0.0 0.0; 0.0 0.0 0.0 0.0 0.0 0.0 0.0 0.0 0.0 0.0 0.0 0.0 0.0 0.0 0.0 0.0 0.0 0.0 0.0 0.0 0.0 0.0 0.0 0.0 0.0 0.0 0.0 0.0 0.0 0.0]
Q3 = [0 74 1 20 74 74 74 74 24 74 16 74 74 74 6 74 74 74 74 74 74 9 74 74 1 74 19 28 74 74; 0 0 74 74 74 13 74 74 74 74 74 11 74 74 24 0 74 74 74 74 23 74 17 14 74 74 19 74 74 21; 0 0 0 74 74 1 74 74 10 74 74 30 74 74 8 74 2 74 7 74 74 29 23 74 74 5 74 74 74 3; 0 0 0 0 21 2 74 74 74 74 74 74 74 74 74 1 4 23 74 74 74 74 74 74 74 5 15 2 74 74; 0 0 0 0 0 74 74 23 74 74 18 13 6 13 9 74 74 12 74 3 74 22 74 74 3 9 74 74 16 74; 0 0 0 0 0 0 74 74 74 74 74 74 74 30 29 74 74 8 74 74 74 17 0 74 74 74 74 74 74 74; 0 0 0 0 0 0 0 74 74 4 74 74 74 74 74 74 4 74 74 74 74 74 74 74 2 25 74 74 74 74; 0 0 0 0 0 0 0 0 74 74 74 27 74 74 3 74 19 24 74 9 74 22 74 46 74 0 17 59 14 52; 0 0 0 0 0 0 0 0 0 74 20 74 74 4 74 74 74 35 74 74 74 74 74 74 74 74 20 5 9 74; 0 0 0 0 0 0 0 0 0 0 74 74 74 74 74 74 74 74 74 74 74 74 25 20 74 74 74 74 19 8; 0 0 0 0 0 0 0 0 0 0 0 74 74 74 74 74 67 74 26 74 74 74 13 17 6 4 74 74 74 74; 0 0 0 0 0 0 0 0 0 0 0 0 74 18 74 74 7 74 4 11 74 74 74 74 22 74 74 74 74 74; 0 0 0 0 0 0 0 0 0 0 0 0 0 12 0 15 74 74 14 74 74 74 74 12 74 74 74 20 74 7; 0 0 0 0 0 0 0 0 0 0 0 0 0 0 74 8 16 74 74 74 74 74 74 25 23 74 74 39 74 74; 0 0 0 0 0 0 0 0 0 0 0 0 0 0 0 27 16 74 74 74 74 74 74 74 74 5 74 74 74 74; 0 0 0 0 0 0 0 0 0 0 0 0 0 0 0 0 14 74 74 74 74 74 3 22 5 74 74 74 74 20; 0 0 0 0 0 0 0 0 0 0 0 0 0 0 0 0 0 74 10 27 74 74 74 0 74 74 74 1 74 74; 0 0 0 0 0 0 0 0 0 0 0 0 0 0 0 0 0 0 21 2 74 74 12 17 3 74 74 74 74 74; 0 0 0 0 0 0 0 0 0 0 0 0 0 0 0 0 0 0 0 74 74 74 74 59 74 74 74 74 74 74; 0 0 0 0 0 0 0 0 0 0 0 0 0 0 0 0 0 0 0 0 74 74 32 74 13 74 74 74 61 74; 0 0 0 0 0 0 0 0 0 0 0 0 0 0 0 0 0 0 0 0 0 12 74 74 15 74 74 74 74 55; 0 0 0 0 0 0 0 0 0 0 0 0 0 0 0 0 0 0 0 0 0 0 74 74 74 74 74 74 74 74; 0 0 0 0 0 0 0 0 0 0 0 0 0 0 0 0 0 0 0 0 0 0 0 74 74 74 74 3 74 74; 0 0 0 0 0 0 0 0 0 0 0 0 0 0 0 0 0 0 0 0 0 0 0 0 4 74 74 74 7 74; 0 0 0 0 0 0 0 0 0 0 0 0 0 0 0 0 0 0 0 0 0 0 0 0 0 6 74 5 0 74; 0 0 0 0 0 0 0 0 0 0 0 0 0 0 0 0 0 0 0 0 0 0 0 0 0 0 74 74 74 74; 0 0 0 0 0 0 0 0 0 0 0 0 0 0 0 0 0 0 0 0 0 0 0 0 0 0 0 74 0 74; 0 0 0 0 0 0 0 0 0 0 0 0 0 0 0 0 0 0 0 0 0 0 0 0 0 0 0 0 74 74; 0 0 0 0 0 0 0 0 0 0 0 0 0 0 0 0 0 0 0 0 0 0 0 0 0 0 0 0 0 74; 0 0 0 0 0 0 0 0 0 0 0 0 0 0 0 0 0 0 0 0 0 0 0 0 0 0 0 0 0 0]
